p tw 50 381
e 0 3
e 0 5
e 0 8
e 0 11
e 0 16
e 0 17
e 0 18
e 0 25
e 0 26
e 0 30
e 0 31
e 0 32
e 0 33
e 0 35
e 0 38
e 0 41
e 0 44
e 0 46
e 0 49
e 1 2
e 1 3
e 1 5
e 1 6
e 1 12
e 1 14
e 1 17
e 1 20
e 1 21
e 1 24
e 1 27
e 1 29
e 1 34
e 1 42
e 1 46
e 1 49
e 2 4
e 2 6
e 2 11
e 2 14
e 2 21
e 2 23
e 2 24
e 2 26
e 2 30
e 2 31
e 2 32
e 2 37
e 2 39
e 2 40
e 2 43
e 2 49
e 3 8
e 3 9
e 3 11
e 3 13
e 3 15
e 3 16
e 3 17
e 3 21
e 3 26
e 3 33
e 3 39
e 3 44
e 3 48
e 4 8
e 4 13
e 4 14
e 4 16
e 4 17
e 4 21
e 4 25
e 4 31
e 4 33
e 4 35
e 4 36
e 4 37
e 4 38
e 4 47
e 4 48
e 5 6
e 5 9
e 5 10
e 5 12
e 5 13
e 5 16
e 5 17
e 5 18
e 5 28
e 5 30
e 5 36
e 5 37
e 5 42
e 5 45
e 5 47
e 6 7
e 6 15
e 6 18
e 6 25
e 6 27
e 6 29
e 6 30
e 6 32
e 6 33
e 6 34
e 6 35
e 6 42
e 6 45
e 6 48
e 7 10
e 7 12
e 7 18
e 7 19
e 7 22
e 7 29
e 7 30
e 7 33
e 7 34
e 7 35
e 7 38
e 7 39
e 7 47
e 8 15
e 8 20
e 8 26
e 8 27
e 8 30
e 8 32
e 8 33
e 8 34
e 8 35
e 8 40
e 8 41
e 8 42
e 8 44
e 9 11
e 9 15
e 9 17
e 9 20
e 9 23
e 9 27
e 9 28
e 9 29
e 9 33
e 9 34
e 9 36
e 9 38
e 9 39
e 9 47
e 9 49
e 10 11
e 10 12
e 10 18
e 10 22
e 10 32
e 10 36
e 10 40
e 10 44
e 10 45
e 10 47
e 11 13
e 11 18
e 11 25
e 11 26
e 11 27
e 11 28
e 11 29
e 11 31
e 11 34
e 11 36
e 11 40
e 11 43
e 12 19
e 12 23
e 12 27
e 12 33
e 12 34
e 12 36
e 12 40
e 12 41
e 12 49
e 13 23
e 13 27
e 13 32
e 13 33
e 13 37
e 13 40
e 13 42
e 13 43
e 13 45
e 13 46
e 13 48
e 14 16
e 14 18
e 14 26
e 14 27
e 14 29
e 14 32
e 14 33
e 14 35
e 14 42
e 14 47
e 14 48
e 15 18
e 15 23
e 15 25
e 15 26
e 15 28
e 15 29
e 15 31
e 15 32
e 15 33
e 15 36
e 15 37
e 15 39
e 15 45
e 15 47
e 15 49
e 16 22
e 16 29
e 16 30
e 16 32
e 16 33
e 16 34
e 16 35
e 16 37
e 16 41
e 16 43
e 16 49
e 17 19
e 17 20
e 17 21
e 17 22
e 17 24
e 17 26
e 17 30
e 17 32
e 17 33
e 17 41
e 17 46
e 17 47
e 17 48
e 18 25
e 18 29
e 18 37
e 18 39
e 18 40
e 18 42
e 18 43
e 18 47
e 19 22
e 19 23
e 19 24
e 19 25
e 19 28
e 19 36
e 19 39
e 19 40
e 19 41
e 19 42
e 19 43
e 19 46
e 19 47
e 19 48
e 20 22
e 20 25
e 20 27
e 20 28
e 20 39
e 20 40
e 20 41
e 21 28
e 21 29
e 21 39
e 21 40
e 21 44
e 21 45
e 22 27
e 22 28
e 22 29
e 22 30
e 22 40
e 22 41
e 22 46
e 22 48
e 23 24
e 23 28
e 23 29
e 23 30
e 23 31
e 23 33
e 23 39
e 23 41
e 23 47
e 24 26
e 24 28
e 24 29
e 24 30
e 24 32
e 24 34
e 24 36
e 24 42
e 24 43
e 24 44
e 24 47
e 24 48
e 25 27
e 25 28
e 25 29
e 25 30
e 25 34
e 25 37
e 25 41
e 25 44
e 25 47
e 26 27
e 26 30
e 26 38
e 26 42
e 26 49
e 27 29
e 27 30
e 27 32
e 27 37
e 27 38
e 27 43
e 27 48
e 28 30
e 28 46
e 29 30
e 29 34
e 29 38
e 29 39
e 29 41
e 29 43
e 29 44
e 29 46
e 29 49
e 30 31
e 30 35
e 30 38
e 30 44
e 30 47
e 30 48
e 31 32
e 31 35
e 31 39
e 32 36
e 32 43
e 32 44
e 32 49
e 33 34
e 33 44
e 34 39
e 35 37
e 35 41
e 35 43
e 35 44
e 36 38
e 36 40
e 36 45
e 36 46
e 37 45
e 37 46
e 37 48
e 37 49
e 38 41
e 39 46
e 39 49
e 40 47
e 40 48
e 41 46
e 43 46
e 43 47
e 43 48
e 43 49
e 44 48
e 45 46
e 46 48
e 47 48
e 47 49
e 48 49
